;; Mutation-Based Equivalence Benchmark
;; Source:     AutomatArk / instance06541.smt2
;; Mutations:  literal_char_dec, literal_char_dec
;; Status:     sat
;;
;; Original regex vs mutated regex
;; Equivalence check: unsat ⟺ L(R1) = L(R2)

(set-info :smt-lib-version 2.6)
(set-info :category "mutation")
(set-info :status sat)
(set-logic QF_S)

(declare-const x String)

;; R1: original
;; R2: mutated (literal_char_dec, literal_char_dec)
(assert
  (str.in_re x
    (re.union (re.inter (re.++ (str.to_re "wowokay") (re.+ (re.range "0" "9")) (str.to_re "FTP") (re.+ (re.union (str.to_re " ") (str.to_re "\u{9}") (str.to_re "\u{a}") (str.to_re "\u{c}") (str.to_re "\u{d}"))) (str.to_re "Host:Filtered\u{22}reaction.txt\u{22}\u{a}")) (re.comp (re.++ (str.to_re "wowokax") (re.+ (re.range "0" "9")) (str.to_re "FTO") (re.+ (re.union (str.to_re " ") (str.to_re "\u{9}") (str.to_re "\u{a}") (str.to_re "\u{c}") (str.to_re "\u{d}"))) (str.to_re "Host:Filtered\u{22}reaction.txt\u{22}\u{a}")))) (re.inter (re.comp (re.++ (str.to_re "wowokay") (re.+ (re.range "0" "9")) (str.to_re "FTP") (re.+ (re.union (str.to_re " ") (str.to_re "\u{9}") (str.to_re "\u{a}") (str.to_re "\u{c}") (str.to_re "\u{d}"))) (str.to_re "Host:Filtered\u{22}reaction.txt\u{22}\u{a}"))) (re.++ (str.to_re "wowokax") (re.+ (re.range "0" "9")) (str.to_re "FTO") (re.+ (re.union (str.to_re " ") (str.to_re "\u{9}") (str.to_re "\u{a}") (str.to_re "\u{c}") (str.to_re "\u{d}"))) (str.to_re "Host:Filtered\u{22}reaction.txt\u{22}\u{a}"))))))

(check-sat)
(exit)
